
Gurobi 9.1.2 (win64, Java) logging started Fri Nov 12 00:55:36 2021

Academic license - for non-commercial use only - expires 2022-10-30
Gurobi Optimizer version 9.1.2 build v9.1.2rc0 (win64)
Thread count: 6 physical cores, 12 logical processors, using up to 12 threads
Optimize a model with 30 rows, 200 columns and 400 nonzeros
Model fingerprint: 0x26a6ac8d
Variable types: 0 continuous, 200 integer (200 binary)
Coefficient statistics:
  Matrix range     [1e+00, 9e+02]
  Objective range  [8e+01, 7e+02]
  Bounds range     [1e+00, 1e+00]
  RHS range        [1e+00, 1e+03]
Found heuristic solution: objective 4482.0000000
Presolve removed 3 rows and 112 columns
Presolve time: 0.00s
Presolved: 27 rows, 88 columns, 176 nonzeros
Variable types: 0 continuous, 88 integer (88 binary)
Presolved: 27 rows, 88 columns, 176 nonzeros


Root relaxation: objective 5.823882e+03, 48 iterations, 0.00 seconds

    Nodes    |    Current Node    |     Objective Bounds      |     Work
 Expl Unexpl |  Obj  Depth IntInf | Incumbent    BestBd   Gap | It/Node Time

     0     0 5823.88247    0   13 4482.00000 5823.88247  29.9%     -    0s
H    0     0                    5337.0000000 5823.88247  9.12%     -    0s
H    0     0                    5418.0000000 5823.88247  7.49%     -    0s
H    0     0                    5490.0000000 5809.37108  5.82%     -    0s
     0     0 5741.15456    0   28 5490.00000 5741.15456  4.57%     -    0s
H    0     0                    5526.0000000 5741.15456  3.89%     -    0s
H    0     0                    5684.0000000 5741.15456  1.01%     -    0s
     0     0 5716.89960    0   28 5684.00000 5716.89960  0.58%     -    0s
     0     0 5710.61516    0   18 5684.00000 5710.61516  0.47%     -    0s
     0     0 5710.61516    0   22 5684.00000 5710.61516  0.47%     -    0s
     0     0 5710.61516    0   19 5684.00000 5710.61516  0.47%     -    0s
     0     0 5684.00000    0   21 5684.00000 5684.00000  0.00%     -    0s

Cutting planes:
  Gomory: 6
  Cover: 8
  MIR: 3

Explored 1 nodes (139 simplex iterations) in 0.10 seconds
Thread count was 12 (of 12 available processors)

Solution count 6: 5684 5526 5490 ... 4482

Optimal solution found (tolerance 1.00e-12)
Best objective 5.684000000000e+03, best bound 5.684000000000e+03, gap 0.0000%
